Gurobi 12.0.3:   lim:time = 14400

  mip:bestbound = 1

Set parameter LogToConsole to value 1

  tech:outlev = 1

Set parameter Cuts to value 3

  cut:cuts = 3

Set parameter Presolve to value 2

  pre:solve = 2

Set parameter MIPFocus to value 2

  mip:focus = 2

Set parameter Symmetry to value 2

  mip:symmetry = 2

Set parameter InfUnbdInfo to value 1

Gurobi Optimizer version 12.0.3 build v12.0.3rc0 (win64 - Windows 11+.0 (26200.2))



CPU model: 13th Gen Intel(R) Core(TM) i7-13700K, instruction set [SSE2|AVX|AVX2]

Thread count: 16 physical cores, 24 logical processors, using up to 24 threads



Non-default parameters:

TimeLimit  14400

MIPFocus  2

Symmetry  2

Cuts  3

InfUnbdInfo  1

Presolve  2



Optimize a model with 488 rows, 1164 columns and 6715 nonzeros

Model fingerprint: 0xcdf02b40

Model has 6 quadratic objective terms

Model has 10 quadratic constraints

Variable types: 41 continuous, 1123 integer (0 binary)

Coefficient statistics:

  Matrix range     [1e+00, 1e+05]

  QMatrix range    [1e+00, 1e+00]

  QLMatrix range   [1e+00, 1e+01]

  Objective range  [4e+00, 1e+02]

  QObjective range [2e+00, 2e+00]

  Bounds range     [1e+00, 1e+02]

  RHS range        [1e+00, 1e+05]

  QRHS range       [1e+02, 1e+02]

Presolve removed 28 rows and 84 columns

Presolve time: 0.19s

Presolved: 1145 rows, 1746 columns, 10759 nonzeros

Variable types: 385 continuous, 1361 integer (1353 binary)

Root relaxation presolve removed 25 rows and 4 columns

Root relaxation presolved: 811 rows, 1437 columns, 18670 nonzeros





Root relaxation: objective 7.494246e+01, 280 iterations, 0.02 seconds (0.02 work units)



    Nodes    |    Current Node    |     Objective Bounds      |     Work

 Expl Unexpl |  Obj  Depth IntInf | Incumbent    BestBd   Gap | It/Node Time



     0     0   74.94246    0   34          -   74.94246      -     -    0s

H    0     0                     507.8300000   76.74238  84.9%     -    0s

     0     0  120.76256    0   56  507.83000  120.76256  76.2%     -    0s

     0     0  120.76256    0   57  507.83000  120.76256  76.2%     -    0s

     0     0  120.76256    0   56  507.83000  120.76256  76.2%     -    0s

H    0     0                     347.1500000  120.76256  65.2%     -    0s

H    0     0                     338.2600000  120.76256  64.3%     -    0s

     0     0  128.22978    0   87  338.26000  128.22978  62.1%     -    0s

     0     0  128.22978    0   88  338.26000  128.22978  62.1%     -    0s

H    0     0                     326.2900000  128.22978  60.7%     -    1s

H    0     0                     314.3100000  128.22978  59.2%     -    1s

H    0     0                     310.8900000  128.22978  58.8%     -    1s

H    0     0                     310.8100000  128.22978  58.7%     -    1s

H    0     0                     298.8400000  128.22978  57.1%     -    1s

     0     0  136.98842    0   82  298.84000  136.98842  54.2%     -    1s

     0     0  137.34582    0   82  298.84000  137.34582  54.0%     -    1s

     0     2  137.67891    0   76  298.84000  137.67891  53.9%     -    1s

H  136   173                     297.3400000  142.85000  52.0%  28.1    1s

H  564   478                     296.8100000  142.85000  51.9%  19.8    1s

H  587   478                     296.3700000  142.85000  51.8%  20.4    1s

  3508  1820  265.46585   23  125  296.37000  164.26291  44.6%  23.2    5s

  3624  1923  213.67005   17   76  296.37000  189.92780  35.9%  27.0   10s

H 3659  1858                     292.0600000  191.75663  34.3%  27.9   10s

H 6479  1838                     288.6200000  221.52141  23.2%  34.2   11s

 12404  2832 infeasible   35       288.62000  238.47250  17.4%  35.3   15s

H19281  4201                     288.6199955  247.32000  14.3%  36.0   18s

 21598  4782  285.57417   31   25  288.62000  248.93148  13.8%  36.0   20s

 32033  6579 infeasible   33       288.62000  254.73500  11.7%  35.4   25s

*38342  7269              34     282.7100000  256.07478  9.42%  35.4   27s

H40411  7289                     282.7099955  256.82771  9.16%  35.4   29s

 42018  7325     cutoff   36       282.71000  257.70013  8.85%  35.3   30s

 52351  7002     cutoff   44       282.71000  261.47491  7.51%  34.8   35s

 67115  5913  267.56004   41   96  282.71000  265.97944  5.92%  33.9   40s

 80284  1979     cutoff   36       282.71000  271.25571  4.05%  33.1   45s



Cutting planes:

  Learned: 16

  Gomory: 22

  Lift-and-project: 16

  Cover: 91

  Implied bound: 227

  Projected implied bound: 23

  Clique: 69

  MIR: 98

  Mixing: 7

  StrongCG: 1

  Flow cover: 371

  Inf proof: 31

  Zero half: 338

  RLT: 64

  Relax-and-lift: 125



Explored 86463 nodes (2802647 simplex iterations) in 47.10 seconds (39.77 work units)

Thread count was 24 (of 24 available processors)



Solution count 10: 282.71 282.71 288.62 ... 310.81



Optimal solution found (tolerance 1.00e-04)

Best objective 2.827100000000e+02, best bound 2.827099955000e+02, gap 0.0000%



AMPL MP initial flat model has 1164 variables (0 integer, 1123 binary);

Objectives: 1 quadratic; 

Constraints:  488 linear; 10 quadratic;



AMPL MP final model has 1164 variables (0 integer, 1123 binary);

Objectives: 1 quadratic; 

Constraints:  488 linear; 10 quadratic;





-----RESULTS INFO-----
running_time:  47.234
TC.best_bound:  282.7099955
TC:  282.7099999999999
MIP Gap (%):  1.5917370916469791e-06
=== Vehicle Routes ===
Vehicle 1: 0 → 1
Vehicle 1: 1 → 2
Vehicle 1: 2 → 16
Vehicle 1: 3 → 20
Vehicle 1: 4 → 3
Vehicle 1: 16 → 4
Vehicle 2: 0 → 17
Vehicle 2: 17 → 20
Vehicle 3: 0 → 20
Vehicle 4: 0 → 20

=== Full Vehicle Routes ===
Vehicle 1: 0 → 1 → 2 → 16 → 4 → 3 → 0 (92<100)
Vehicle 2: 0 → 17 → 0 (92<100)
Vehicle 3: 0 → 0 (0<100)
Vehicle 4: 0 → 0 (0<100)
Arc used by MRT line: y variables:
MRT used: 17 → 18
Customer assigment to PL: u variables:
5 17
6 16
7 16
8 18
9 18
10 18
11 16
12 18
Node is served by regular vehicle: g variables:
1
2
3
4
16
17
Customer assigment to Home delivery: gm variables:
1
2
3
4
Node total demands: ntd variables:
1 13 1
2 12 1
3 13 1
4 12 1
9 0 0
10 0 0
11 0 0
12 0 0
19 0 0
13 0 0
14 0 0
15 0 0
16 42 1
17 92 1
18 0 0
Customer's demand delivered to PL: l variables:
5
6
7
8
9
10
11
12
Lockers load <= capacity:
0 <= 73
0 <= 85
0 <= 81
0 <= 96
42 <= 74
12 <= 82
80 <= 96
